c Standarized MaxSat Instance
c{
c "sha1sum": "0a31e4e819a23de4b4adc1f12916d0bda78b5617",
c "nvars": 40,
c "ncls": 1126,
c "nhards": 0,
c "nhard_len_stats":
c    { "min": 0, "max": 0, "ave": 0.00,
c      "stddev": 0.00 },
c "nsofts": 1126,
c "nsoft_len_stats":
c    { "min": 2, "max": 2, "ave": 2.00,
c      "stddev": 0.00 },
c "nsoft_wts": 10,
c "soft_wt_stats":
c    { "min": 1, "max": 10, "ave": 5.64,
c      "stddev": 2.81 }
c}
c------------------------------------------------------------
c File:  san400_0.7_2.clq
c
c SOURCE: Laura Sanchis (laura@cs.colgate.edu)
c
c REFERENCE: "Test Case Construction for the Vertex Cover Problem", 
c DIMACS Workshop on Computational Support for Discrete Mathematics, 
c March, 1992, with additional work in a to be published technical
c report.
c
c 400 vertices 55860 edges 30 max clique
c 400 23940 370 990 24750 15
p wcnf 40 1126 6349
9 1 2 0
9 -1 -2 0
4 1 4 0
4 -1 -4 0
8 1 6 0
8 -1 -6 0
8 1 7 0
8 -1 -7 0
10 1 11 0
10 -1 -11 0
2 1 12 0
2 -1 -12 0
4 1 13 0
4 -1 -13 0
8 1 17 0
8 -1 -17 0
3 1 18 0
3 -1 -18 0
6 1 19 0
6 -1 -19 0
5 1 20 0
5 -1 -20 0
7 1 21 0
7 -1 -21 0
4 1 22 0
4 -1 -22 0
6 1 24 0
6 -1 -24 0
10 1 25 0
10 -1 -25 0
10 1 26 0
10 -1 -26 0
7 1 27 0
7 -1 -27 0
8 1 28 0
8 -1 -28 0
2 1 29 0
2 -1 -29 0
7 1 31 0
7 -1 -31 0
1 1 32 0
1 -1 -32 0
3 1 33 0
3 -1 -33 0
2 1 34 0
2 -1 -34 0
9 1 35 0
9 -1 -35 0
2 1 36 0
2 -1 -36 0
5 1 37 0
5 -1 -37 0
2 1 38 0
2 -1 -38 0
2 1 39 0
2 -1 -39 0
10 1 40 0
10 -1 -40 0
3 2 3 0
3 -2 -3 0
6 2 4 0
6 -2 -4 0
9 2 6 0
9 -2 -6 0
7 2 7 0
7 -2 -7 0
3 2 8 0
3 -2 -8 0
7 2 10 0
7 -2 -10 0
6 2 11 0
6 -2 -11 0
5 2 13 0
5 -2 -13 0
10 2 16 0
10 -2 -16 0
3 2 17 0
3 -2 -17 0
8 2 18 0
8 -2 -18 0
6 2 19 0
6 -2 -19 0
8 2 20 0
8 -2 -20 0
5 2 21 0
5 -2 -21 0
9 2 22 0
9 -2 -22 0
3 2 23 0
3 -2 -23 0
4 2 24 0
4 -2 -24 0
9 2 25 0
9 -2 -25 0
10 2 26 0
10 -2 -26 0
1 2 27 0
1 -2 -27 0
10 2 28 0
10 -2 -28 0
6 2 29 0
6 -2 -29 0
1 2 30 0
1 -2 -30 0
2 2 31 0
2 -2 -31 0
7 2 32 0
7 -2 -32 0
9 2 33 0
9 -2 -33 0
4 2 34 0
4 -2 -34 0
1 2 35 0
1 -2 -35 0
1 2 36 0
1 -2 -36 0
5 2 38 0
5 -2 -38 0
1 2 39 0
1 -2 -39 0
3 2 40 0
3 -2 -40 0
10 3 4 0
10 -3 -4 0
10 3 5 0
10 -3 -5 0
9 3 6 0
9 -3 -6 0
3 3 8 0
3 -3 -8 0
6 3 9 0
6 -3 -9 0
4 3 10 0
4 -3 -10 0
8 3 12 0
8 -3 -12 0
6 3 13 0
6 -3 -13 0
7 3 14 0
7 -3 -14 0
6 3 15 0
6 -3 -15 0
1 3 16 0
1 -3 -16 0
5 3 19 0
5 -3 -19 0
10 3 20 0
10 -3 -20 0
10 3 21 0
10 -3 -21 0
8 3 23 0
8 -3 -23 0
3 3 24 0
3 -3 -24 0
8 3 27 0
8 -3 -27 0
7 3 28 0
7 -3 -28 0
4 3 29 0
4 -3 -29 0
7 3 30 0
7 -3 -30 0
2 3 31 0
2 -3 -31 0
5 3 32 0
5 -3 -32 0
9 3 33 0
9 -3 -33 0
9 3 37 0
9 -3 -37 0
4 3 38 0
4 -3 -38 0
3 3 39 0
3 -3 -39 0
9 3 40 0
9 -3 -40 0
4 4 5 0
4 -4 -5 0
7 4 6 0
7 -4 -6 0
10 4 7 0
10 -4 -7 0
6 4 8 0
6 -4 -8 0
7 4 11 0
7 -4 -11 0
9 4 12 0
9 -4 -12 0
5 4 13 0
5 -4 -13 0
10 4 14 0
10 -4 -14 0
4 4 15 0
4 -4 -15 0
9 4 17 0
9 -4 -17 0
7 4 18 0
7 -4 -18 0
10 4 19 0
10 -4 -19 0
5 4 20 0
5 -4 -20 0
3 4 21 0
3 -4 -21 0
10 4 22 0
10 -4 -22 0
10 4 24 0
10 -4 -24 0
2 4 25 0
2 -4 -25 0
9 4 26 0
9 -4 -26 0
7 4 27 0
7 -4 -27 0
5 4 28 0
5 -4 -28 0
7 4 33 0
7 -4 -33 0
3 4 34 0
3 -4 -34 0
8 4 35 0
8 -4 -35 0
4 4 36 0
4 -4 -36 0
5 4 38 0
5 -4 -38 0
3 4 39 0
3 -4 -39 0
2 4 40 0
2 -4 -40 0
3 5 6 0
3 -5 -6 0
6 5 8 0
6 -5 -8 0
5 5 9 0
5 -5 -9 0
2 5 12 0
2 -5 -12 0
10 5 13 0
10 -5 -13 0
2 5 14 0
2 -5 -14 0
2 5 15 0
2 -5 -15 0
5 5 16 0
5 -5 -16 0
8 5 20 0
8 -5 -20 0
10 5 21 0
10 -5 -21 0
10 5 23 0
10 -5 -23 0
7 5 24 0
7 -5 -24 0
4 5 27 0
4 -5 -27 0
8 5 28 0
8 -5 -28 0
4 5 29 0
4 -5 -29 0
3 5 30 0
3 -5 -30 0
3 5 31 0
3 -5 -31 0
6 5 35 0
6 -5 -35 0
3 5 36 0
3 -5 -36 0
2 5 37 0
2 -5 -37 0
8 5 39 0
8 -5 -39 0
2 5 40 0
2 -5 -40 0
8 6 7 0
8 -6 -7 0
2 6 10 0
2 -6 -10 0
8 6 11 0
8 -6 -11 0
1 6 13 0
1 -6 -13 0
10 6 14 0
10 -6 -14 0
1 6 15 0
1 -6 -15 0
6 6 16 0
6 -6 -16 0
2 6 17 0
2 -6 -17 0
3 6 18 0
3 -6 -18 0
8 6 19 0
8 -6 -19 0
8 6 20 0
8 -6 -20 0
7 6 21 0
7 -6 -21 0
10 6 22 0
10 -6 -22 0
7 6 24 0
7 -6 -24 0
8 6 25 0
8 -6 -25 0
1 6 26 0
1 -6 -26 0
2 6 28 0
2 -6 -28 0
6 6 29 0
6 -6 -29 0
1 6 32 0
1 -6 -32 0
1 6 33 0
1 -6 -33 0
3 6 34 0
3 -6 -34 0
5 6 35 0
5 -6 -35 0
9 6 36 0
9 -6 -36 0
6 6 38 0
6 -6 -38 0
8 6 39 0
8 -6 -39 0
1 6 40 0
1 -6 -40 0
2 7 10 0
2 -7 -10 0
10 7 11 0
10 -7 -11 0
3 7 12 0
3 -7 -12 0
9 7 13 0
9 -7 -13 0
2 7 15 0
2 -7 -15 0
10 7 16 0
10 -7 -16 0
1 7 17 0
1 -7 -17 0
9 7 18 0
9 -7 -18 0
1 7 19 0
1 -7 -19 0
1 7 20 0
1 -7 -20 0
10 7 21 0
10 -7 -21 0
6 7 22 0
6 -7 -22 0
2 7 24 0
2 -7 -24 0
2 7 25 0
2 -7 -25 0
4 7 26 0
4 -7 -26 0
10 7 30 0
10 -7 -30 0
9 7 31 0
9 -7 -31 0
4 7 32 0
4 -7 -32 0
6 7 33 0
6 -7 -33 0
6 7 34 0
6 -7 -34 0
5 7 35 0
5 -7 -35 0
7 7 36 0
7 -7 -36 0
1 7 38 0
1 -7 -38 0
6 7 39 0
6 -7 -39 0
8 7 40 0
8 -7 -40 0
4 8 9 0
4 -8 -9 0
10 8 10 0
10 -8 -10 0
6 8 11 0
6 -8 -11 0
9 8 12 0
9 -8 -12 0
8 8 14 0
8 -8 -14 0
7 8 16 0
7 -8 -16 0
1 8 18 0
1 -8 -18 0
8 8 21 0
8 -8 -21 0
9 8 23 0
9 -8 -23 0
10 8 24 0
10 -8 -24 0
9 8 27 0
9 -8 -27 0
9 8 28 0
9 -8 -28 0
10 8 29 0
10 -8 -29 0
8 8 30 0
8 -8 -30 0
10 8 31 0
10 -8 -31 0
10 8 32 0
10 -8 -32 0
7 8 33 0
7 -8 -33 0
5 8 36 0
5 -8 -36 0
2 8 37 0
2 -8 -37 0
9 8 38 0
9 -8 -38 0
9 8 39 0
9 -8 -39 0
1 8 40 0
1 -8 -40 0
7 9 10 0
7 -9 -10 0
3 9 11 0
3 -9 -11 0
7 9 12 0
7 -9 -12 0
3 9 14 0
3 -9 -14 0
8 9 15 0
8 -9 -15 0
4 9 16 0
4 -9 -16 0
4 9 18 0
4 -9 -18 0
3 9 19 0
3 -9 -19 0
1 9 22 0
1 -9 -22 0
7 9 23 0
7 -9 -23 0
3 9 24 0
3 -9 -24 0
7 9 25 0
7 -9 -25 0
6 9 27 0
6 -9 -27 0
10 9 28 0
10 -9 -28 0
3 9 29 0
3 -9 -29 0
6 9 31 0
6 -9 -31 0
8 9 32 0
8 -9 -32 0
2 9 33 0
2 -9 -33 0
5 9 35 0
5 -9 -35 0
6 9 37 0
6 -9 -37 0
10 9 38 0
10 -9 -38 0
5 9 39 0
5 -9 -39 0
4 10 12 0
4 -10 -12 0
9 10 14 0
9 -10 -14 0
5 10 15 0
5 -10 -15 0
1 10 16 0
1 -10 -16 0
4 10 17 0
4 -10 -17 0
6 10 19 0
6 -10 -19 0
9 10 21 0
9 -10 -21 0
3 10 22 0
3 -10 -22 0
7 10 23 0
7 -10 -23 0
5 10 25 0
5 -10 -25 0
5 10 26 0
5 -10 -26 0
4 10 27 0
4 -10 -27 0
8 10 28 0
8 -10 -28 0
2 10 29 0
2 -10 -29 0
7 10 30 0
7 -10 -30 0
1 10 31 0
1 -10 -31 0
5 10 33 0
5 -10 -33 0
7 10 36 0
7 -10 -36 0
7 10 37 0
7 -10 -37 0
7 10 39 0
7 -10 -39 0
4 11 13 0
4 -11 -13 0
2 11 15 0
2 -11 -15 0
7 11 16 0
7 -11 -16 0
7 11 17 0
7 -11 -17 0
8 11 18 0
8 -11 -18 0
4 11 19 0
4 -11 -19 0
8 11 20 0
8 -11 -20 0
3 11 21 0
3 -11 -21 0
10 11 22 0
10 -11 -22 0
7 11 23 0
7 -11 -23 0
7 11 24 0
7 -11 -24 0
3 11 25 0
3 -11 -25 0
6 11 26 0
6 -11 -26 0
1 11 28 0
1 -11 -28 0
3 11 29 0
3 -11 -29 0
9 11 31 0
9 -11 -31 0
7 11 32 0
7 -11 -32 0
1 11 33 0
1 -11 -33 0
2 11 34 0
2 -11 -34 0
4 11 35 0
4 -11 -35 0
6 11 36 0
6 -11 -36 0
6 11 37 0
6 -11 -37 0
7 11 38 0
7 -11 -38 0
3 11 40 0
3 -11 -40 0
8 12 14 0
8 -12 -14 0
3 12 15 0
3 -12 -15 0
4 12 16 0
4 -12 -16 0
2 12 19 0
2 -12 -19 0
10 12 22 0
10 -12 -22 0
1 12 23 0
1 -12 -23 0
9 12 24 0
9 -12 -24 0
4 12 25 0
4 -12 -25 0
2 12 27 0
2 -12 -27 0
5 12 28 0
5 -12 -28 0
10 12 29 0
10 -12 -29 0
10 12 30 0
10 -12 -30 0
8 12 31 0
8 -12 -31 0
7 12 33 0
7 -12 -33 0
2 12 37 0
2 -12 -37 0
7 12 39 0
7 -12 -39 0
4 12 40 0
4 -12 -40 0
8 13 16 0
8 -13 -16 0
10 13 18 0
10 -13 -18 0
10 13 19 0
10 -13 -19 0
9 13 21 0
9 -13 -21 0
3 13 22 0
3 -13 -22 0
8 13 23 0
8 -13 -23 0
6 13 24 0
6 -13 -24 0
3 13 25 0
3 -13 -25 0
10 13 26 0
10 -13 -26 0
10 13 27 0
10 -13 -27 0
9 13 28 0
9 -13 -28 0
5 13 29 0
5 -13 -29 0
6 13 30 0
6 -13 -30 0
2 13 32 0
2 -13 -32 0
3 13 34 0
3 -13 -34 0
9 13 35 0
9 -13 -35 0
5 13 36 0
5 -13 -36 0
5 13 37 0
5 -13 -37 0
9 13 38 0
9 -13 -38 0
5 13 39 0
5 -13 -39 0
3 13 40 0
3 -13 -40 0
2 14 15 0
2 -14 -15 0
7 14 16 0
7 -14 -16 0
8 14 17 0
8 -14 -17 0
2 14 19 0
2 -14 -19 0
7 14 21 0
7 -14 -21 0
5 14 23 0
5 -14 -23 0
9 14 24 0
9 -14 -24 0
8 14 27 0
8 -14 -27 0
2 14 28 0
2 -14 -28 0
3 14 29 0
3 -14 -29 0
5 14 30 0
5 -14 -30 0
2 14 31 0
2 -14 -31 0
2 14 33 0
2 -14 -33 0
4 14 37 0
4 -14 -37 0
4 14 38 0
4 -14 -38 0
10 14 39 0
10 -14 -39 0
10 14 40 0
10 -14 -40 0
7 15 16 0
7 -15 -16 0
9 15 17 0
9 -15 -17 0
9 15 18 0
9 -15 -18 0
5 15 19 0
5 -15 -19 0
4 15 21 0
4 -15 -21 0
4 15 22 0
4 -15 -22 0
7 15 23 0
7 -15 -23 0
7 15 27 0
7 -15 -27 0
3 15 28 0
3 -15 -28 0
2 15 29 0
2 -15 -29 0
1 15 30 0
1 -15 -30 0
2 15 31 0
2 -15 -31 0
7 15 32 0
7 -15 -32 0
4 15 33 0
4 -15 -33 0
3 15 36 0
3 -15 -36 0
4 15 37 0
4 -15 -37 0
1 15 38 0
1 -15 -38 0
5 15 39 0
5 -15 -39 0
10 16 19 0
10 -16 -19 0
6 16 20 0
6 -16 -20 0
3 16 22 0
3 -16 -22 0
7 16 23 0
7 -16 -23 0
8 16 24 0
8 -16 -24 0
5 16 26 0
5 -16 -26 0
2 16 27 0
2 -16 -27 0
9 16 28 0
9 -16 -28 0
7 16 29 0
7 -16 -29 0
6 16 30 0
6 -16 -30 0
3 16 31 0
3 -16 -31 0
6 16 34 0
6 -16 -34 0
5 16 37 0
5 -16 -37 0
9 16 38 0
9 -16 -38 0
4 16 39 0
4 -16 -39 0
3 17 18 0
3 -17 -18 0
4 17 19 0
4 -17 -19 0
8 17 21 0
8 -17 -21 0
7 17 22 0
7 -17 -22 0
10 17 24 0
10 -17 -24 0
4 17 25 0
4 -17 -25 0
9 17 26 0
9 -17 -26 0
2 17 28 0
2 -17 -28 0
5 17 30 0
5 -17 -30 0
1 17 31 0
1 -17 -31 0
8 17 32 0
8 -17 -32 0
8 17 34 0
8 -17 -34 0
3 17 35 0
3 -17 -35 0
2 17 36 0
2 -17 -36 0
9 17 37 0
9 -17 -37 0
8 17 38 0
8 -17 -38 0
1 17 39 0
1 -17 -39 0
5 17 40 0
5 -17 -40 0
10 18 19 0
10 -18 -19 0
8 18 20 0
8 -18 -20 0
3 18 21 0
3 -18 -21 0
5 18 22 0
5 -18 -22 0
9 18 24 0
9 -18 -24 0
1 18 25 0
1 -18 -25 0
1 18 26 0
1 -18 -26 0
4 18 27 0
4 -18 -27 0
4 18 28 0
4 -18 -28 0
7 18 29 0
7 -18 -29 0
9 18 30 0
9 -18 -30 0
2 18 31 0
2 -18 -31 0
1 18 32 0
1 -18 -32 0
1 18 33 0
1 -18 -33 0
5 18 34 0
5 -18 -34 0
8 18 35 0
8 -18 -35 0
7 18 36 0
7 -18 -36 0
5 18 38 0
5 -18 -38 0
2 18 40 0
2 -18 -40 0
6 19 20 0
6 -19 -20 0
6 19 21 0
6 -19 -21 0
6 19 22 0
6 -19 -22 0
6 19 24 0
6 -19 -24 0
4 19 25 0
4 -19 -25 0
4 19 26 0
4 -19 -26 0
9 19 28 0
9 -19 -28 0
5 19 29 0
5 -19 -29 0
2 19 31 0
2 -19 -31 0
7 19 32 0
7 -19 -32 0
6 19 33 0
6 -19 -33 0
7 19 36 0
7 -19 -36 0
6 19 38 0
6 -19 -38 0
3 19 39 0
3 -19 -39 0
9 19 40 0
9 -19 -40 0
1 20 21 0
1 -20 -21 0
1 20 22 0
1 -20 -22 0
10 20 23 0
10 -20 -23 0
2 20 24 0
2 -20 -24 0
5 20 25 0
5 -20 -25 0
3 20 26 0
3 -20 -26 0
9 20 30 0
9 -20 -30 0
3 20 32 0
3 -20 -32 0
4 20 34 0
4 -20 -34 0
9 20 35 0
9 -20 -35 0
4 20 36 0
4 -20 -36 0
9 20 37 0
9 -20 -37 0
7 20 38 0
7 -20 -38 0
1 20 40 0
1 -20 -40 0
3 21 22 0
3 -21 -22 0
8 21 24 0
8 -21 -24 0
7 21 25 0
7 -21 -25 0
9 21 26 0
9 -21 -26 0
4 21 27 0
4 -21 -27 0
3 21 29 0
3 -21 -29 0
2 21 30 0
2 -21 -30 0
7 21 31 0
7 -21 -31 0
2 21 32 0
2 -21 -32 0
7 21 33 0
7 -21 -33 0
8 21 34 0
8 -21 -34 0
8 21 35 0
8 -21 -35 0
3 21 36 0
3 -21 -36 0
5 21 38 0
5 -21 -38 0
4 22 24 0
4 -22 -24 0
5 22 25 0
5 -22 -25 0
3 22 27 0
3 -22 -27 0
4 22 29 0
4 -22 -29 0
6 22 31 0
6 -22 -31 0
2 22 32 0
2 -22 -32 0
6 22 33 0
6 -22 -33 0
1 22 34 0
1 -22 -34 0
4 22 35 0
4 -22 -35 0
4 22 36 0
4 -22 -36 0
4 22 38 0
4 -22 -38 0
8 22 39 0
8 -22 -39 0
3 22 40 0
3 -22 -40 0
7 23 24 0
7 -23 -24 0
6 23 28 0
6 -23 -28 0
10 23 29 0
10 -23 -29 0
7 23 30 0
7 -23 -30 0
9 23 31 0
9 -23 -31 0
7 23 33 0
7 -23 -33 0
4 23 37 0
4 -23 -37 0
7 23 38 0
7 -23 -38 0
1 23 39 0
1 -23 -39 0
6 24 25 0
6 -24 -25 0
9 24 26 0
9 -24 -26 0
7 24 30 0
7 -24 -30 0
7 24 32 0
7 -24 -32 0
6 24 33 0
6 -24 -33 0
5 24 34 0
5 -24 -34 0
4 24 35 0
4 -24 -35 0
8 24 36 0
8 -24 -36 0
9 24 38 0
9 -24 -38 0
7 24 39 0
7 -24 -39 0
2 24 40 0
2 -24 -40 0
1 25 26 0
1 -25 -26 0
1 25 29 0
1 -25 -29 0
7 25 32 0
7 -25 -32 0
2 25 33 0
2 -25 -33 0
7 25 34 0
7 -25 -34 0
8 25 35 0
8 -25 -35 0
6 25 37 0
6 -25 -37 0
1 25 38 0
1 -25 -38 0
1 25 39 0
1 -25 -39 0
4 25 40 0
4 -25 -40 0
3 26 28 0
3 -26 -28 0
7 26 29 0
7 -26 -29 0
9 26 32 0
9 -26 -32 0
2 26 33 0
2 -26 -33 0
4 26 34 0
4 -26 -34 0
7 26 35 0
7 -26 -35 0
9 26 36 0
9 -26 -36 0
7 26 38 0
7 -26 -38 0
4 26 39 0
4 -26 -39 0
9 26 40 0
9 -26 -40 0
2 27 28 0
2 -27 -28 0
2 27 29 0
2 -27 -29 0
6 27 30 0
6 -27 -30 0
9 27 31 0
9 -27 -31 0
7 27 32 0
7 -27 -32 0
10 27 36 0
10 -27 -36 0
2 27 37 0
2 -27 -37 0
4 27 38 0
4 -27 -38 0
8 27 39 0
8 -27 -39 0
9 27 40 0
9 -27 -40 0
6 28 29 0
6 -28 -29 0
8 28 30 0
8 -28 -30 0
10 28 32 0
10 -28 -32 0
3 28 33 0
3 -28 -33 0
10 28 34 0
10 -28 -34 0
6 28 36 0
6 -28 -36 0
10 28 37 0
10 -28 -37 0
5 28 38 0
5 -28 -38 0
6 28 39 0
6 -28 -39 0
10 28 40 0
10 -28 -40 0
8 29 30 0
8 -29 -30 0
9 29 31 0
9 -29 -31 0
6 29 33 0
6 -29 -33 0
7 29 37 0
7 -29 -37 0
10 29 39 0
10 -29 -39 0
10 29 40 0
10 -29 -40 0
4 30 31 0
4 -30 -31 0
9 30 32 0
9 -30 -32 0
6 30 33 0
6 -30 -33 0
7 30 36 0
7 -30 -36 0
8 30 37 0
8 -30 -37 0
8 30 38 0
8 -30 -38 0
8 30 39 0
8 -30 -39 0
3 31 34 0
3 -31 -34 0
7 31 35 0
7 -31 -35 0
5 31 36 0
5 -31 -36 0
2 31 37 0
2 -31 -37 0
8 31 39 0
8 -31 -39 0
9 31 40 0
9 -31 -40 0
9 32 33 0
9 -32 -33 0
7 32 34 0
7 -32 -34 0
5 32 35 0
5 -32 -35 0
7 32 36 0
7 -32 -36 0
6 32 38 0
6 -32 -38 0
7 32 39 0
7 -32 -39 0
6 32 40 0
6 -32 -40 0
2 33 34 0
2 -33 -34 0
6 33 35 0
6 -33 -35 0
1 33 36 0
1 -33 -36 0
8 33 38 0
8 -33 -38 0
6 33 39 0
6 -33 -39 0
9 33 40 0
9 -33 -40 0
6 34 36 0
6 -34 -36 0
2 34 38 0
2 -34 -38 0
5 34 39 0
5 -34 -39 0
6 34 40 0
6 -34 -40 0
1 35 36 0
1 -35 -36 0
9 35 37 0
9 -35 -37 0
4 35 38 0
4 -35 -38 0
7 35 39 0
7 -35 -39 0
5 35 40 0
5 -35 -40 0
2 36 37 0
2 -36 -37 0
5 36 38 0
5 -36 -38 0
3 36 40 0
3 -36 -40 0
5 37 38 0
5 -37 -38 0
1 38 40 0
1 -38 -40 0
